% demand
num_movements = 27;
loading_factor = [1150, 1550, 2000, 1650, 850, 1350, 1350, 850, 1000, 800, 1000, 1650, 1250, 1650, 1000, 800, 1400, 1550, 1600, 1900, 1850, 1200, 1750, 1400, 950, 1700, 1000];
pickup_time = [0, 0, 0, 0, 1, 1, 2, 2, 2, 2, 3, 3, 3, 3, 3, 5, 5, 5, 5, 6, 6, 7, 7, 7, 7, 7, 8];
delivery_time = [2, 1, 2, 3, 2, 3, 3, 3, 3, 3, 5, 5, 4, 4, 6, 6, 6, 6, 7, 7, 7, 9, 9, 8, 9, 9, 9];

% transporter definition
total_capacity = 7000;
num_decks = 3;
capacity = [3000, 1000, 3000];

% ways out of decks
num_ways_out = 1;
paths_out = array3d(decks, ways_out, decks, [
% ways out of deck d1
2, 3, 0, 

% ways out of deck d2
3, 0, 0, 

% ways out of deck d3
0, 0, 0,	

]);

